20
5
20627
216 260 372 223 191
false
0.25
20 44 44 33 17 27 7 46 36 33 8 32 37 9 46 35 21 11 29 11
50 25 24 28 29 2 8 9 1 22 25 8 6 32 27 48 48 6 8 33
1 29 35 8 34 6 44 47 9 13 4 29 50 38 6 27 48 5 42 11
19 19 5 34 40 17 43 19 11 43 28 11 24 45 1 4 46 44 24 44
8 10 20 8 3 5 24 28 5 4 32 41 43 43 11 26 27 17 23 7
96 65 90 86 73 31 56 45 14 28 21 26 72 32 88 11 15 43 11 25
0 0 10 0 0 14 0 49 0 0 0 0 0 52 0 0 0 0 0 0
0 0 0 13 32 0 0 0 0 61 21 0 74 6 0 72 0 0 0
0 0 96 0 0 0 0 0 0 0 0 0 45 0 0 0 83 0
0 0 0 0 24 0 0 46 0 0 16 0 0 0 48 0 0
0 0 0 0 83 0 0 7 0 0 0 0 0 0 0 0
0 39 0 0 0 63 0 0 0 0 0 0 0 0 0
0 0 0 0 0 0 0 72 61 0 67 63 66 0
0 0 76 0 0 3 0 81 0 0 0 0 0
0 0 56 44 0 0 30 0 0 0 31 33
0 0 0 0 0 0 0 0 0 0 59
0 23 0 0 23 0 0 97 0 0
0 0 0 0 0 1 98 43 0
0 0 0 80 0 0 0 0
0 0 0 0 0 0 0
0 0 0 0 0 0
0 0 49 0 0
0 0 47 0
0 0 0
0 0
0 97 0 0 0 0 0 0 0 0 0 9 0 0 0 15 0 0 0
0 0 0 0 0 0 0 72 0 0 0 48 0 0 39 0 0 0
0 0 23 39 0 0 0 31 45 89 0 0 0 27 96 83 0
0 12 0 0 0 0 0 0 0 0 0 0 83 0 0 0
0 0 77 45 0 0 0 0 0 0 64 95 0 0 0
0 50 0 0 0 0 0 74 42 0 0 0 0 0
0 0 0 0 0 81 0 0 0 0 0 72 0
0 0 0 0 0 0 0 0 0 0 0 0
0 0 1 4 0 0 17 0 36 44 20
0 90 0 0 0 0 62 41 80 0
0 0 0 0 0 0 100 84 0
0 0 0 21 0 0 0 0
0 65 0 0 0 0 0
0 0 0 0 3 0
0 45 0 39 0
0 18 64 69
0 0 0
0 0
0
0 91 0 0 0 0 0 0 19 0 0 0 0 61 0 92 47 0
0 49 38 0 0 0 86 0 0 0 0 0 69 0 6 0 0
0 0 23 0 69 14 0 0 79 0 0 0 0 67 99 0
0 0 57 0 0 0 69 0 3 0 1 79 0 0 24
0 35 0 0 0 0 88 0 0 51 0 0 0 0
0 60 0 0 0 0 72 0 0 0 0 0 0
0 92 16 0 0 78 0 0 0 39 49 0
0 0 48 1 0 0 30 0 0 0 0
0 0 0 0 49 0 0 0 48 0
0 0 0 0 19 0 0 0 0
0 62 0 89 0 51 72 14
0 0 0 93 0 88 0
0 0 23 88 4 0
0 0 0 11 0
0 0 0 0
0 0 0
0 0
0
0 0 0 0 0 0 0 0 17 0 0 0 70 64 0 11 72
0 0 0 0 0 0 0 0 41 68 54 0 0 0 94 5
0 0 60 61 0 0 26 44 0 0 0 0 68 0 0
0 0 0 0 59 0 34 0 16 0 0 15 0 0
0 0 0 0 0 0 89 0 0 49 16 0 0
0 0 0 0 0 0 0 0 0 0 0 0
0 0 0 0 94 0 0 0 15 0 86
0 0 0 0 0 0 0 17 0 0
0 0 0 0 0 0 0 0 0
0 0 15 0 0 0 0 0
0 0 0 83 35 77 0
0 0 0 0 0 0
0 0 0 0 0
0 0 0 0
0 0 0
0 0
0
0 0 69 0 0 0 0 54 82 38 0 0 50 0 0 0
0 0 0 0 0 0 0 0 0 0 0 52 0 33 0
0 0 0 0 0 0 0 0 37 0 0 78 0 51
0 0 0 0 0 96 28 0 0 0 0 0 90
0 0 0 0 0 0 0 0 0 25 0 0
0 15 0 0 0 0 0 0 0 20 0
0 0 52 0 86 0 0 63 0 0
0 0 0 0 0 0 0 0 0
0 0 0 0 0 0 67 0
0 0 0 0 0 0 0
0 0 0 75 46 0
0 0 67 0 45
0 0 0 0
0 87 0
0 0
0
0 0 0 45 0 0 0 16 0 0 0 0 0 87 0
0 0 17 100 0 0 0 26 0 0 0 80 0 50
0 6 0 0 0 32 0 0 76 0 0 0 0
0 0 90 0 0 65 0 35 0 100 0 84
0 0 0 41 0 63 0 0 0 0 0
0 0 0 77 0 0 0 7 0 0
0 70 0 0 0 90 11 0 0
0 0 0 0 0 0 0 0
0 0 0 0 11 0 90
0 0 61 0 0 0
0 0 0 41 74
0 0 0 0
0 0 35
0 0
0
0 0 0 59 0 0 0 0 0 0 0 0 0 0
0 0 0 0 0 0 76 0 0 37 0 0 0
0 0 68 0 0 0 0 47 0 0 0 0
0 0 0 0 0 0 0 51 95 17 0
0 0 48 0 0 0 0 0 0 0
0 0 83 99 20 0 0 89 0
0 0 0 72 0 0 0 0
0 0 0 0 0 0 47
0 13 1 51 0 0
0 0 0 0 0
0 0 0 84
0 52 12
0 0
0
0 0 0 0 0 0 0 0 0 0 0 0 0
0 0 0 0 0 0 0 91 0 0 0 0
0 0 0 36 0 0 0 0 0 0 0
0 0 0 0 0 88 0 0 0 0
0 0 0 0 0 0 0 0 0
0 0 0 63 0 39 0 7
0 66 0 0 0 0 0
0 0 56 0 0 0
0 0 0 0 0
0 0 0 0
0 0 5
0 0
0
0 0 60 0 0 67 0 0 0 0 0 0
0 37 0 70 0 0 73 0 90 0 0
0 0 0 0 85 0 0 0 0 0
0 0 23 0 92 0 0 0 0
0 0 0 0 98 0 0 46
0 68 86 0 0 0 40
0 0 0 0 0 0
0 77 0 0 0
0 0 0 0
0 0 0
0 80
0
0 16 0 0 0 52 80 0 0 0 0
0 0 0 0 13 0 17 38 53 10
0 30 0 0 83 42 95 78 0
0 57 0 0 0 0 0 0
0 38 2 0 16 0 81
0 0 81 0 0 0
0 0 0 0 0
0 9 0 0
0 0 46
0 0
0
0 0 0 0 0 0 0 0 0 0
0 0 0 0 44 4 0 0 0
0 0 0 83 0 0 28 0
0 57 46 0 0 0 0
0 0 0 61 0 0
0 0 0 0 0
0 0 0 0
0 0 0
0 0
0
0 0 0 30 97 0 0 0 53
0 0 0 0 0 0 0 0
0 0 90 0 0 89 3
0 2 0 55 69 0
0 0 0 78 0
0 0 0 0
0 0 7
0 91
0
0 58 48 0 0 0 0 0
0 0 0 0 0 0 0
0 0 49 0 0 0
0 0 53 0 0
0 0 58 0
0 11 0
0 0
0
0 89 0 0 0 0 0
0 0 57 0 0 8
0 0 0 0 0
0 0 0 0
0 0 0
0 0
0
0 0 0 0 0 0
0 0 0 20 60
0 71 78 56
0 0 0
0 93
0
0 0 0 0 0
0 0 63 0
0 0 0
0 0
0
0 0 0 0
0 0 38
0 0
0
0 0 0
0 0
0
0 0
0
0
2532 2977 2345 2632 2902 2379 1968 2529 2537 2061 2489 2226 2342 3170 2272 2563 2352 2681 2778 1793
631.8006315789473 148.75569476983998 160.85075757575757 181.8338680926916 279.2022244759973 457.9704575163399 139.927514346119 122.64269264743727 725.479494949495 175.57101154659296 239.9218214285714 136.24548799602417 130.50381604860675 135.77422990616074 598.150314741619 192.17545075295075 69.64830917874397 289.0796613190731 149.14371385735703 135.44523809523812
